
n_res = 6;
rcap = [42, 47, 36, 50, 831, 728];
rtype = [1, 1, 1, 1, 2, 2];
n_tasks = 50;
modes =  [{1, 2, 3, 4, 5, 6, 7, 8, 9}, {10, 11, 12, 13, 14, 15, 16, 17, 18}, {19, 20, 21, 22, 23, 24, 25, 26, 27}, {28, 29, 30, 31, 32, 33, 34, 35, 36}, {37, 38, 39, 40, 41, 42, 43, 44, 45}, {46, 47, 48, 49, 50, 51, 52, 53, 54}, {55, 56, 57, 58, 59, 60, 61, 62, 63}, {64, 65, 66, 67, 68, 69, 70, 71, 72}, {73, 74, 75, 76, 77, 78, 79, 80, 81}, {82, 83, 84, 85, 86, 87, 88, 89, 90}, {91, 92, 93, 94, 95, 96, 97, 98, 99}, {100, 101, 102, 103, 104, 105, 106, 107, 108}, {109, 110, 111, 112, 113, 114, 115, 116, 117}, {118, 119, 120, 121, 122, 123, 124, 125, 126}, {127, 128, 129, 130, 131, 132, 133, 134, 135}, {136, 137, 138, 139, 140, 141, 142, 143, 144}, {145, 146, 147, 148, 149, 150, 151, 152, 153}, {154, 155, 156, 157, 158, 159, 160, 161, 162}, {163, 164, 165, 166, 167, 168, 169, 170, 171}, {172, 173, 174, 175, 176, 177, 178, 179, 180}, {181, 182, 183, 184, 185, 186, 187, 188, 189}, {190, 191, 192, 193, 194, 195, 196, 197, 198}, {199, 200, 201, 202, 203, 204, 205, 206, 207}, {208, 209, 210, 211, 212, 213, 214, 215, 216}, {217, 218, 219, 220, 221, 222, 223, 224, 225}, {226, 227, 228, 229, 230, 231, 232, 233, 234}, {235, 236, 237, 238, 239, 240, 241, 242, 243}, {244, 245, 246, 247, 248, 249, 250, 251, 252}, {253, 254, 255, 256, 257, 258, 259, 260, 261}, {262, 263, 264, 265, 266, 267, 268, 269, 270}, {271, 272, 273, 274, 275, 276, 277, 278, 279}, {280, 281, 282, 283, 284, 285, 286, 287, 288}, {289, 290, 291, 292, 293, 294, 295, 296, 297}, {298, 299, 300, 301, 302, 303, 304, 305, 306}, {307, 308, 309, 310, 311, 312, 313, 314, 315}, {316, 317, 318, 319, 320, 321, 322, 323, 324}, {325, 326, 327, 328, 329, 330, 331, 332, 333}, {334, 335, 336, 337, 338, 339, 340, 341, 342}, {343, 344, 345, 346, 347, 348, 349, 350, 351}, {352, 353, 354, 355, 356, 357, 358, 359, 360}, {361, 362, 363, 364, 365, 366, 367, 368, 369}, {370, 371, 372, 373, 374, 375, 376, 377, 378}, {379, 380, 381, 382, 383, 384, 385, 386, 387}, {388, 389, 390, 391, 392, 393, 394, 395, 396}, {397, 398, 399, 400, 401, 402, 403, 404, 405}, {406, 407, 408, 409, 410, 411, 412, 413, 414}, {415, 416, 417, 418, 419, 420, 421, 422, 423}, {424, 425, 426, 427, 428, 429, 430, 431, 432}, {433, 434, 435, 436, 437, 438, 439, 440, 441}, {442, 443, 444, 445, 446, 447, 448, 449, 450}];
succ =  [{49, 38, 37, 29, 27, 26, 25, 24, 22, 19, 8}, {50, 49, 47, 46, 42, 41, 39, 29, 24, 23, 16, 15}, {38, 27, 26, 23, 19, 12, 9}, {50, 49, 48, 44, 43, 42, 41, 40, 38, 37, 36, 33, 32, 31, 29, 25}, {50, 49, 46, 43, 42, 41, 39, 29, 26, 15}, {50, 45, 44, 41, 40, 37, 36, 34, 33, 32, 31, 29, 28}, {47, 46, 45, 39, 35, 33, 24, 23}, {50, 48, 47, 44, 43, 42, 41, 39, 36, 35, 33, 32, 31, 30}, {48, 45, 44, 42, 41, 39, 36, 34, 33, 29, 28}, {46, 44, 42, 39, 38, 37, 36, 33, 32, 31, 28}, {48, 42, 40, 39, 38, 37, 36, 34, 32, 30}, {47, 43, 42, 41, 36, 32, 31, 30, 29}, {47, 46, 41, 40, 39, 34, 32, 31, 28}, {48, 44, 38, 37, 36, 33, 32, 31, 28}, {45, 40, 38, 37, 34, 33, 32, 31, 30}, {45, 44, 43, 37, 35, 33, 32, 28}, {49, 42, 40, 39, 38, 33, 30}, {49, 38, 34, 33, 32, 31, 30}, {40, 39, 35, 34, 31, 28}, {47, 43, 41, 40, 38}, {46, 43, 35, 32, 31}, {35, 33, 31, 28}, {37, 36, 32, 31}, {34, 31, 28}, {46, 34, 28}, {35, 28}, {45, 34}, {30}, {35}, {}, {}, {}, {}, {}, {}, {}, {}, {}, {}, {}, {}, {}, {}, {}, {}, {}, {}, {}, {}, {}];
n_opt = 450;
dur = [1, 6, 7, 9, 12, 15, 16, 28, 29, 2, 11, 16, 18, 19, 22, 24, 28, 29, 2, 6, 12, 13, 16, 20, 22, 23, 28, 1, 4, 5, 8, 17, 20, 25, 28, 29, 1, 2, 3, 8, 9, 12, 21, 22, 23, 7, 12, 13, 14, 15, 18, 19, 22, 25, 2, 14, 15, 17, 18, 20, 22, 23, 25, 2, 3, 5, 6, 9, 11, 13, 18, 23, 2, 3, 5, 8, 15, 24, 27, 28, 30, 4, 8, 12, 15, 19, 22, 25, 26, 28, 3, 10, 15, 16, 17, 26, 27, 28, 29, 7, 9, 11, 15, 19, 20, 22, 27, 29, 2, 4, 11, 12, 13, 20, 25, 29, 30, 2, 3, 8, 9, 16, 18, 21, 24, 26, 1, 3, 8, 9, 10, 13, 19, 22, 23, 4, 11, 11, 12, 14, 15, 18, 24, 26, 1, 4, 5, 6, 12, 23, 24, 27, 28, 8, 9, 15, 16, 17, 18, 19, 22, 24, 4, 5, 6, 8, 14, 15, 23, 24, 27, 3, 4, 5, 8, 15, 16, 21, 23, 24, 4, 12, 13, 19, 20, 21, 23, 28, 29, 2, 8, 9, 13, 15, 23, 24, 25, 26, 9, 10, 11, 16, 24, 25, 26, 28, 29, 5, 6, 7, 8, 9, 12, 13, 18, 27, 1, 4, 5, 7, 13, 14, 15, 16, 22, 1, 5, 7, 8, 9, 12, 13, 25, 29, 1, 9, 14, 15, 16, 19, 22, 28, 30, 1, 6, 7, 8, 11, 12, 17, 18, 26, 1, 5, 7, 11, 15, 16, 22, 24, 26, 1, 2, 4, 5, 6, 12, 18, 22, 27, 4, 5, 7, 13, 14, 15, 18, 20, 23, 1, 4, 6, 8, 9, 10, 14, 19, 26, 6, 7, 14, 16, 18, 19, 21, 22, 26, 4, 10, 12, 15, 18, 19, 24, 25, 30, 2, 4, 10, 11, 21, 22, 24, 25, 26, 2, 3, 4, 10, 11, 20, 26, 27, 29, 5, 6, 7, 14, 15, 19, 21, 27, 28, 3, 6, 14, 16, 17, 19, 21, 23, 26, 3, 7, 15, 16, 17, 18, 26, 27, 30, 3, 6, 7, 15, 22, 23, 24, 26, 28, 13, 15, 17, 22, 23, 25, 26, 27, 30, 2, 3, 14, 15, 17, 18, 20, 24, 30, 1, 9, 13, 16, 17, 18, 21, 22, 25, 5, 6, 9, 13, 15, 16, 22, 23, 26, 2, 4, 5, 7, 10, 17, 19, 25, 28, 2, 3, 5, 10, 18, 19, 28, 29, 30, 3, 5, 12, 16, 17, 18, 19, 24, 25, 4, 9, 10, 11, 12, 14, 21, 23, 24, 1, 2, 5, 7, 9, 13, 14, 27, 30, 1, 2, 5, 6, 14, 21, 24, 26, 27];
rreq = [|2, 1, 1, 1, 1, 1, 1, 1, 1, 4, 4, 4, 4, 4, 3, 3, 3, 3, 4, 3, 3, 3, 3, 3, 3, 3, 3, 4, 4, 4, 4, 4, 4, 4, 4, 4, 3, 3, 3, 3, 2, 2, 2, 2, 2, 4, 3, 3, 3, 3, 2, 2, 2, 2, 5, 5, 5, 5, 5, 5, 5, 5, 5, 3, 2, 2, 2, 2, 1, 1, 1, 1, 2, 2, 2, 2, 2, 1, 1, 1, 1, 4, 4, 4, 3, 3, 3, 3, 2, 2, 4, 3, 3, 3, 3, 3, 3, 3, 3, 2, 2, 2, 2, 2, 2, 2, 2, 2, 4, 4, 4, 4, 3, 3, 3, 3, 3, 1, 1, 1, 1, 1, 1, 1, 1, 1, 2, 2, 2, 2, 2, 2, 2, 2, 2, 3, 3, 3, 3, 3, 3, 3, 3, 3, 5, 4, 4, 3, 3, 2, 1, 1, 1, 2, 2, 2, 2, 1, 1, 1, 1, 1, 4, 4, 4, 4, 4, 4, 4, 4, 4, 3, 3, 3, 3, 3, 3, 3, 3, 3, 5, 4, 3, 3, 3, 2, 1, 1, 1, 4, 3, 3, 3, 2, 2, 2, 1, 1, 3, 3, 3, 3, 2, 2, 1, 1, 1, 4, 3, 3, 2, 2, 2, 1, 1, 1, 4, 4, 4, 4, 3, 3, 2, 2, 2, 5, 5, 5, 5, 5, 5, 5, 5, 5, 1, 1, 1, 1, 1, 1, 1, 1, 1, 3, 2, 2, 2, 2, 2, 2, 2, 2, 3, 3, 3, 3, 3, 3, 3, 3, 3, 2, 2, 2, 2, 2, 2, 2, 2, 2, 4, 3, 3, 2, 2, 2, 1, 1, 1, 3, 3, 3, 3, 3, 3, 3, 3, 3, 5, 4, 4, 4, 4, 3, 3, 3, 3, 2, 2, 2, 2, 2, 2, 2, 2, 2, 5, 4, 4, 4, 4, 3, 3, 3, 3, 5, 4, 4, 3, 3, 2, 1, 1, 1, 5, 5, 5, 5, 5, 5, 5, 5, 5, 2, 2, 2, 2, 2, 2, 2, 2, 2, 1, 1, 1, 1, 1, 1, 1, 1, 1, 4, 4, 4, 3, 2, 2, 1, 1, 1, 1, 1, 1, 1, 1, 1, 1, 1, 1, 4, 3, 3, 2, 2, 2, 1, 1, 1, 1, 1, 1, 1, 1, 1, 1, 1, 1, 2, 2, 2, 2, 2, 2, 2, 2, 2, 4, 3, 3, 3, 2, 2, 2, 2, 2, 2, 2, 2, 2, 2, 2, 2, 2, 2, 3, 3, 3, 3, 2, 2, 2, 2, 2, 4, 3, 3, 3, 3, 3, 3, 3, 3, 4, 4, 3, 3, 3, 2, 2, 1, 1, 2, 2, 2, 2, 2, 1, 1, 1, 1
 |2, 2, 2, 2, 2, 2, 2, 2, 2, 3, 3, 3, 3, 3, 3, 3, 3, 3, 3, 2, 2, 2, 2, 2, 2, 2, 2, 2, 1, 1, 1, 1, 1, 1, 1, 1, 5, 4, 4, 4, 3, 3, 3, 3, 3, 4, 4, 4, 4, 3, 3, 3, 3, 3, 3, 3, 3, 3, 3, 3, 3, 3, 3, 2, 2, 2, 2, 2, 2, 2, 2, 2, 5, 4, 4, 4, 3, 3, 3, 2, 2, 3, 2, 2, 2, 2, 2, 2, 2, 2, 2, 2, 2, 2, 2, 2, 2, 2, 2, 5, 4, 4, 4, 3, 3, 2, 2, 2, 4, 4, 4, 3, 2, 2, 1, 1, 1, 3, 3, 3, 3, 3, 3, 3, 3, 3, 5, 4, 4, 4, 4, 3, 3, 3, 3, 3, 3, 3, 3, 3, 3, 3, 3, 3, 2, 1, 1, 1, 1, 1, 1, 1, 1, 3, 2, 2, 2, 1, 1, 1, 1, 1, 5, 4, 4, 4, 3, 3, 3, 3, 3, 4, 3, 3, 2, 2, 2, 1, 1, 1, 3, 2, 2, 2, 1, 1, 1, 1, 1, 5, 4, 4, 4, 4, 4, 4, 4, 4, 2, 2, 2, 2, 2, 2, 2, 2, 2, 3, 2, 2, 2, 1, 1, 1, 1, 1, 5, 5, 5, 5, 5, 5, 5, 5, 5, 4, 4, 4, 4, 4, 3, 3, 3, 3, 4, 4, 4, 4, 4, 4, 4, 4, 4, 2, 2, 2, 2, 2, 2, 2, 2, 2, 3, 3, 3, 3, 3, 3, 3, 3, 3, 5, 5, 5, 5, 5, 5, 5, 5, 5, 2, 1, 1, 1, 1, 1, 1, 1, 1, 5, 4, 4, 4, 3, 3, 3, 3, 3, 4, 3, 3, 3, 3, 2, 2, 2, 2, 2, 1, 1, 1, 1, 1, 1, 1, 1, 3, 2, 2, 2, 2, 1, 1, 1, 1, 4, 3, 3, 2, 2, 2, 2, 1, 1, 5, 4, 4, 4, 3, 3, 3, 3, 3, 4, 4, 4, 4, 4, 4, 4, 4, 4, 4, 3, 3, 2, 2, 2, 2, 1, 1, 3, 3, 3, 3, 3, 3, 3, 3, 3, 3, 3, 3, 3, 3, 3, 3, 3, 3, 4, 4, 4, 3, 3, 2, 2, 1, 1, 5, 4, 3, 3, 2, 2, 1, 1, 1, 3, 3, 3, 3, 3, 3, 3, 3, 3, 5, 4, 4, 4, 4, 3, 3, 3, 3, 2, 1, 1, 1, 1, 1, 1, 1, 1, 2, 2, 2, 2, 2, 2, 2, 2, 2, 2, 2, 2, 2, 2, 2, 2, 2, 2, 3, 3, 3, 3, 3, 3, 3, 3, 3, 3, 3, 3, 3, 2, 2, 2, 1, 1
 |4, 4, 4, 4, 4, 4, 4, 4, 4, 4, 4, 3, 3, 3, 2, 1, 1, 1, 4, 3, 3, 3, 3, 2, 2, 2, 2, 4, 3, 3, 3, 2, 2, 1, 1, 1, 4, 4, 3, 3, 2, 2, 2, 1, 1, 1, 1, 1, 1, 1, 1, 1, 1, 1, 1, 1, 1, 1, 1, 1, 1, 1, 1, 4, 3, 3, 2, 2, 2, 1, 1, 1, 4, 4, 4, 4, 4, 4, 4, 4, 4, 2, 2, 2, 2, 2, 2, 2, 2, 2, 5, 5, 5, 5, 5, 5, 5, 5, 5, 3, 3, 3, 3, 3, 3, 3, 3, 3, 5, 4, 4, 4, 3, 3, 3, 3, 3, 3, 3, 3, 3, 3, 3, 3, 3, 3, 1, 1, 1, 1, 1, 1, 1, 1, 1, 5, 4, 4, 4, 3, 3, 3, 3, 3, 5, 4, 4, 4, 4, 4, 4, 4, 4, 3, 2, 2, 2, 1, 1, 1, 1, 1, 4, 4, 4, 4, 3, 3, 3, 2, 2, 1, 1, 1, 1, 1, 1, 1, 1, 1, 1, 1, 1, 1, 1, 1, 1, 1, 1, 3, 3, 3, 3, 3, 3, 3, 3, 3, 5, 4, 4, 4, 3, 3, 3, 3, 3, 1, 1, 1, 1, 1, 1, 1, 1, 1, 4, 4, 4, 4, 3, 3, 3, 2, 2, 1, 1, 1, 1, 1, 1, 1, 1, 1, 1, 1, 1, 1, 1, 1, 1, 1, 1, 4, 3, 3, 3, 3, 3, 3, 3, 3, 2, 2, 2, 2, 2, 2, 2, 2, 2, 4, 4, 4, 4, 4, 4, 4, 4, 4, 4, 4, 3, 3, 3, 2, 2, 1, 1, 5, 4, 4, 4, 3, 3, 3, 3, 3, 3, 3, 3, 3, 3, 2, 2, 2, 2, 4, 4, 3, 3, 3, 2, 2, 1, 1, 2, 2, 2, 2, 2, 2, 2, 2, 2, 2, 2, 2, 2, 1, 1, 1, 1, 1, 4, 4, 4, 3, 3, 3, 3, 2, 2, 3, 3, 3, 3, 3, 3, 3, 3, 3, 1, 1, 1, 1, 1, 1, 1, 1, 1, 2, 1, 1, 1, 1, 1, 1, 1, 1, 3, 3, 3, 3, 3, 3, 3, 3, 3, 4, 4, 4, 4, 3, 3, 2, 2, 2, 3, 3, 3, 3, 2, 2, 1, 1, 1, 2, 1, 1, 1, 1, 1, 1, 1, 1, 4, 4, 4, 3, 2, 2, 2, 1, 1, 5, 4, 4, 4, 4, 4, 4, 4, 4, 4, 4, 4, 4, 4, 3, 3, 3, 3, 5, 4, 4, 3, 3, 3, 2, 2, 2, 2, 2, 2, 2, 1, 1, 1, 1, 1, 1, 1, 1, 1, 1, 1, 1, 1, 1
 |2, 2, 2, 2, 2, 2, 2, 2, 2, 4, 4, 4, 4, 3, 3, 2, 2, 2, 3, 2, 2, 2, 2, 2, 2, 2, 2, 3, 2, 2, 2, 1, 1, 1, 1, 1, 5, 4, 4, 4, 4, 3, 3, 3, 3, 3, 2, 2, 2, 2, 2, 2, 2, 2, 3, 3, 3, 3, 2, 2, 2, 1, 1, 2, 2, 2, 2, 2, 2, 2, 2, 2, 4, 4, 4, 3, 3, 2, 2, 1, 1, 3, 2, 2, 2, 2, 2, 2, 2, 2, 4, 3, 3, 3, 3, 2, 2, 2, 2, 5, 4, 4, 4, 4, 4, 4, 4, 4, 2, 1, 1, 1, 1, 1, 1, 1, 1, 2, 2, 2, 2, 2, 2, 2, 2, 2, 2, 2, 2, 2, 2, 2, 2, 2, 2, 5, 4, 4, 4, 3, 3, 3, 2, 2, 4, 4, 4, 4, 4, 4, 4, 4, 4, 5, 4, 4, 4, 4, 4, 4, 4, 4, 4, 3, 3, 2, 2, 2, 2, 1, 1, 5, 5, 5, 5, 5, 5, 5, 5, 5, 5, 4, 4, 4, 4, 4, 4, 4, 4, 2, 2, 2, 2, 2, 2, 2, 2, 2, 5, 5, 5, 5, 5, 5, 5, 5, 5, 3, 2, 2, 2, 2, 2, 2, 2, 2, 2, 2, 2, 2, 2, 2, 2, 2, 2, 4, 4, 4, 4, 4, 4, 4, 4, 4, 4, 4, 4, 3, 2, 2, 1, 1, 1, 5, 4, 4, 3, 3, 3, 3, 2, 2, 4, 4, 4, 4, 4, 4, 4, 4, 4, 4, 3, 3, 3, 2, 2, 2, 2, 2, 4, 4, 4, 3, 3, 2, 2, 1, 1, 1, 1, 1, 1, 1, 1, 1, 1, 1, 5, 4, 3, 3, 3, 2, 1, 1, 1, 5, 4, 3, 3, 2, 2, 1, 1, 1, 3, 3, 3, 3, 2, 2, 2, 1, 1, 1, 1, 1, 1, 1, 1, 1, 1, 1, 5, 4, 4, 3, 3, 3, 3, 2, 2, 4, 3, 3, 2, 2, 2, 1, 1, 1, 4, 4, 4, 4, 4, 3, 3, 3, 3, 5, 4, 4, 4, 4, 4, 4, 4, 4, 1, 1, 1, 1, 1, 1, 1, 1, 1, 5, 4, 4, 4, 4, 4, 4, 4, 4, 2, 2, 2, 2, 1, 1, 1, 1, 1, 4, 3, 3, 3, 3, 2, 2, 2, 2, 3, 2, 2, 2, 2, 2, 2, 2, 2, 3, 3, 3, 3, 3, 3, 3, 3, 3, 3, 3, 3, 3, 2, 2, 2, 2, 2, 5, 5, 5, 5, 5, 5, 5, 5, 5, 3, 3, 3, 3, 3, 2, 2, 2, 2, 4, 4, 3, 3, 3, 2, 1, 1, 1
 |29, 29, 29, 28, 28, 27, 26, 26, 26, 12, 11, 11, 11, 10, 10, 10, 9, 9, 26, 26, 24, 22, 17, 15, 14, 12, 8, 24, 23, 22, 21, 21, 19, 18, 17, 17, 19, 19, 18, 16, 16, 16, 15, 14, 13, 26, 21, 20, 17, 15, 12, 9, 7, 4, 17, 16, 16, 16, 15, 14, 14, 13, 12, 25, 25, 24, 24, 23, 23, 22, 22, 21, 23, 22, 22, 22, 21, 21, 21, 21, 21, 27, 26, 25, 22, 21, 21, 19, 18, 15, 26, 25, 23, 19, 16, 13, 8, 8, 3, 20, 20, 20, 20, 19, 19, 18, 18, 18, 15, 13, 11, 11, 10, 9, 8, 7, 5, 29, 28, 27, 24, 23, 22, 20, 18, 18, 10, 10, 9, 8, 7, 5, 4, 3, 2, 18, 17, 16, 16, 14, 14, 13, 12, 12, 19, 17, 16, 16, 14, 13, 13, 11, 11, 9, 9, 9, 9, 9, 9, 9, 9, 9, 20, 20, 20, 20, 19, 19, 18, 18, 18, 21, 19, 19, 18, 18, 17, 17, 16, 16, 18, 17, 17, 17, 15, 15, 15, 13, 13, 10, 9, 8, 7, 7, 6, 6, 5, 4, 11, 11, 11, 11, 11, 11, 11, 11, 11, 24, 18, 16, 14, 11, 8, 8, 4, 1, 27, 26, 26, 26, 25, 24, 24, 23, 23, 24, 23, 23, 21, 20, 17, 15, 15, 13, 21, 21, 18, 16, 16, 14, 13, 12, 10, 26, 22, 21, 20, 17, 16, 12, 10, 9, 27, 27, 26, 25, 24, 22, 21, 21, 20, 14, 13, 11, 11, 10, 7, 6, 6, 4, 17, 16, 16, 16, 14, 14, 14, 13, 12, 15, 15, 14, 13, 12, 11, 10, 10, 9, 30, 27, 25, 25, 22, 21, 19, 19, 18, 6, 6, 6, 6, 6, 5, 5, 5, 5, 29, 29, 29, 29, 29, 29, 29, 29, 29, 16, 14, 12, 11, 9, 8, 6, 3, 2, 29, 29, 29, 29, 29, 29, 29, 29, 29, 20, 18, 17, 17, 15, 15, 13, 12, 11, 19, 18, 17, 14, 13, 12, 12, 9, 9, 17, 17, 17, 16, 16, 15, 14, 14, 14, 17, 15, 14, 12, 9, 7, 7, 5, 3, 25, 23, 23, 21, 16, 15, 13, 10, 7, 21, 21, 20, 18, 18, 17, 15, 14, 14, 23, 22, 21, 20, 20, 20, 19, 19, 18, 28, 25, 21, 18, 17, 14, 10, 10, 8, 23, 21, 21, 21, 20, 19, 19, 18, 18, 20, 19, 18, 18, 17, 17, 16, 16, 16, 22, 21, 20, 17, 15, 15, 14, 12, 10, 22, 19, 18, 15, 12, 10, 7, 3, 1, 28, 27, 25, 24, 23, 23, 21, 20, 19
 |21, 21, 20, 20, 19, 20, 19, 18, 17, 12, 11, 10, 8, 8, 7, 6, 4, 3, 9, 7, 6, 6, 5, 5, 4, 3, 2, 24, 24, 24, 24, 24, 24, 24, 25, 24, 29, 29, 29, 28, 27, 27, 27, 26, 26, 22, 22, 20, 20, 18, 18, 17, 15, 14, 2, 3, 2, 1, 1, 2, 1, 1, 1, 21, 20, 19, 18, 18, 18, 17, 16, 16, 29, 26, 25, 22, 22, 21, 19, 16, 15, 18, 17, 16, 15, 14, 13, 11, 10, 9, 14, 13, 13, 12, 12, 12, 11, 10, 11, 22, 21, 19, 18, 16, 15, 15, 14, 12, 30, 26, 25, 23, 23, 22, 20, 19, 17, 15, 14, 14, 13, 12, 12, 12, 10, 9, 23, 22, 19, 18, 14, 11, 9, 8, 7, 7, 7, 8, 7, 8, 7, 7, 7, 6, 24, 21, 20, 17, 16, 13, 9, 6, 5, 11, 11, 10, 9, 9, 8, 7, 6, 5, 27, 24, 21, 18, 15, 12, 10, 6, 4, 25, 24, 23, 20, 17, 13, 13, 10, 8, 26, 25, 25, 24, 24, 24, 24, 24, 23, 14, 12, 11, 9, 9, 7, 6, 4, 3, 28, 26, 22, 20, 18, 17, 15, 12, 10, 26, 25, 25, 25, 25, 24, 24, 24, 24, 25, 23, 21, 20, 16, 16, 13, 10, 9, 5, 5, 4, 4, 4, 3, 3, 2, 2, 27, 26, 26, 25, 24, 22, 21, 21, 20, 17, 16, 14, 14, 13, 13, 11, 11, 10, 10, 9, 8, 8, 7, 7, 7, 6, 6, 23, 22, 22, 21, 22, 22, 22, 21, 22, 22, 20, 19, 19, 16, 15, 13, 12, 9, 10, 10, 9, 8, 8, 7, 7, 6, 6, 11, 10, 9, 8, 7, 7, 6, 5, 4, 22, 21, 20, 18, 14, 14, 10, 9, 8, 21, 21, 19, 15, 15, 11, 10, 7, 5, 29, 28, 28, 28, 28, 28, 28, 28, 28, 7, 6, 5, 5, 5, 4, 3, 3, 2, 15, 15, 14, 14, 14, 13, 13, 12, 12, 10, 9, 8, 6, 6, 4, 3, 3, 2, 13, 13, 12, 12, 12, 11, 11, 10, 9, 26, 23, 23, 20, 20, 17, 15, 14, 14, 15, 11, 10, 8, 8, 6, 4, 2, 1, 24, 21, 20, 15, 15, 12, 9, 8, 4, 20, 18, 18, 17, 15, 15, 14, 13, 12, 4, 4, 4, 4, 4, 4, 4, 4, 4, 28, 27, 26, 25, 26, 25, 24, 24, 23, 11, 10, 10, 9, 9, 8, 8, 7, 6, 16, 13, 12, 11, 9, 8, 8, 5, 5, 18, 17, 17, 16, 15, 15, 14, 14, 14, 15, 15, 15, 15, 15, 14, 14, 14, 14|];